webassembly/ejemplos_dzn/folder7_json_95.dzn
TERM = { '.', 's(2)', 's(4)', 'in_1', 'local_0', 'local_1', 'in_2', 's(1)', 's(0)', 's(3)', 'in_0'};
null = '.';
s = 7;
n = 9;
ndeps = 3;
max_registers_sz = 3;
NR = 0;
registers = [| |];
dependencies = [|'call[function_index(0)]_0', 'i32.load_1', |'i32.load_1', 'i32.store16_2', |'i32.store16_2', 'i32.store16_5'|];
GET_ENUM = { GET1, GET2, GET3};
SET_ENUM = { SET1, SET2, SET3};
TEE_ENUM = { TEE1, TEE2, TEE3};
N = 7;
OP = { 'call[function_index(0)]_0', 'i32.load_1', 'i32.store16_2', 'i32.sub_0', 'i32.store16_5', 'local.get_0', 'local.get_1' };
in_ops = [2, 1, 2, 2, 2, 0, 0 ];
out_ops = [3, 1, 0, 1, 0, 1, 1 ];
in1 = ['in_0', 's(2)', 's(3)', 's(0)', 'local_1', '.', '.' ];
in2 = ['in_1', '.', 's(1)', 'in_2', 's(4)', '.', '.' ];
in3 = ['.', '.', '.', '.', '.', '.', '.' ];
out1 = ['s(2)', 's(3)', '.', 's(4)', '.', 'local_0', 'local_1' ];
out2 = ['s(1)', '.', '.', '.', '.', '.', '.' ];
out3 = ['s(0)', '.', '.', '.', '.', '.', '.' ];
comm = [false, false, false, false, false, false, false ];
gas = [1, 1, 1, 1, 1, 1, 1 ];
sz = [1, 1, 1, 1, 1, 1, 1 ];
stor = [true, false, true, false, true, false, false ];
lb = [ 1, 1, 1, 1, 1, 1, 1 ];
ub = [ 7, 7, 7, 7, 7, 7, 7 ];
startstack = [ 'in_0', 'in_1', 'in_2', null, null, null, null, null, null ];
endstack = [ 'local_0', null, null, null, null, null, null, null, null ];
